Test: hole010_shuffled.cnf
Options: -no-inverting-opt -sym-var-bump
WARNING: for repeatability, setting FPU to use double precision
============================[ Problem Statistics ]=============================
|                                                                             |
|  Number of symmetries:           19                                         |
|  Number of invertingSyms:         0                                         |
|  Number of variables:           110                                         |
|  Number of clauses:             561                                         |
|  Parse time:                   0.00 s                                       |
|                                                                             |
============================[ Search Statistics ]==============================
| Conflicts |          ORIGINAL         |          LEARNT          | Progress |
|           |    Vars  Clauses Literals |    Limit  Clauses Lit/Cl |          |
===============================================================================
|       100 |     110      561     1210 |      205      206     30 |  0.008 % |
|       250 |     110      561     1210 |      226      212     34 |  0.008 % |
|       475 |     110      561     1210 |      248      152     34 |  0.008 % |
|       812 |     110      561     1210 |      273      251     31 |  0.008 % |
|      1318 |     110      561     1210 |      301      176     26 |  0.008 % |
|      2077 |     110      561     1210 |      331      344     31 |  0.008 % |
|      3216 |     110      561     1210 |      364      272     29 |  0.008 % |
|      4924 |     110      561     1210 |      400      220     28 |  0.008 % |
===============================================================================
restarts              : 30
conflicts             : 5884           (63953 /sec)
symconflicts          : 677            (7358 /sec)
decisions             : 9316           (0.00 % random) (101255 /sec)
propagations          : 111294         (1209652 /sec)
sympropagations       : 3981           (43269 /sec)
conflict literals     : 219160         (5.96 % deleted)
literals     : 219160         (5.96 % deleted)

HEURISTIC USAGES
random                : 0           
activity w/ lookahead : 0           
activity no lookahead : 0           
original sp           : 9316        
sym count             : 0           

Memory used           : 5.00 MB
CPU time              : 0.092005 s

UNSATISFIABLE
